5	15
14 141	12 31	11 183	10 18	8 60	4 117	7 98	0 122	6 78	9 131	3 58	2 165	1 98	5 20	13 145
10 88	4 69	3 194	9 92	8 127	7 177	12 14	13 84	0 23	11 127	2 181	5 166	6 73	1 132	14 193
7 177	6 167	11 43	3 63	9 103	10 190	13 15	2 150	0 181	4 24	14 42	12 12	1 167	8 5	5 25
4 187	13 113	8 137	10 178	3 42	6 8	11 17	14 192	7 72	2 3	0 55	12 179	9 9	5 96	1 165
13 132	9 145	14 126	3 109	10 24	5 169	7 126	0 79	2 86	4 166	12 117	1 165	6 38	11 136	8 142
